tsp_instances/TSP20/instance57.tsp
NODE_COORD_SECTION
0 176 154
1 61 99
2 39 185
3 66 18
4 40 61
5 187 147
6 77 14
7 169 65
8 55 61
9 6 79
10 42 147
11 29 193
12 187 117
13 28 9
14 114 85
15 143 146
16 65 33
17 30 127
18 120 190
19 195 76
