tsp_instances/TSP20/instance57.opt.tour
TOUR_SECTION
1
6
13
20
8
15
2
9
17
7
4
14
5
10
18
11
3
12
19
16
-1